g3 1 1 0	# problem WB2
 13 16 1 0 12	# vars, constraints, objectives, ranges, eqns
 8 0	# nonlinear constraints, objectives
 0 0	# network constraints: nonlinear, linear
 7 0 0	# nonlinear vars in constraints, objectives, both
 0 0 0 1	# linear network variables; functions; arith, flags
 0 0 0 0 0	# discrete variables: binary, integer, nonlinear (b,c,o)
 44 1	# nonzeros in Jacobian, gradients
 0 0	# max name lengths: constraints, variables
 0 0 0 0 0	# common exprs: b,c,o,c1,o1
C0
o2
v3
v0
C1
o0
o2
v4
v1
o2
v6
v2
C2
o16
o2
v5
v0
C3
o1
o2
v4
v2
o2
v6
v1
C4
o16
o2
v0
v0
C5
o1
o16
o2
v2
v2
o2
v1
v1
C6
o16
o2
v0
v0
C7
o1
o16
o2
v2
v2
o2
v1
v1
C8
n0
C9
n0
C10
n0
C11
n0
C12
n0
C13
n0
C14
n0
C15
n0
O0 0
n0
r
4 0
4 3.5
4 0
4 -3.5
1 -0.9025
1 -0.9025
2 -1.1025
2 -1.1025
4 0
4 0
4 0
4 0
4 0
4 0
4 0
4 0
b
2 0
3
3
3
3
3
3
0 -1000 1000
0 -1000 1000
3
3
3
3
k12
8
16
24
26
29
31
34
35
36
38
40
42
J0 3
0 0
3 0
7 0.01
J1 4
1 0
2 0
4 0
6 0
J2 3
0 0
5 0
8 0.01
J3 4
1 0
2 0
4 0
6 0
J4 1
0 0
J5 2
1 0
2 0
J6 1
0 0
J7 2
1 0
2 0
J8 4
0 -0.9615384615384616
1 0.9615384615384616
2 4.807692307692308
9 1
J9 4
0 0.9615384615384616
1 -0.9615384615384616
2 -4.807692307692308
11 1
J10 4
0 4.807692307692308
1 -4.807692307692308
2 0.9615384615384616
10 1
J11 4
0 -4.807692307692308
1 4.807692307692308
2 -0.9615384615384616
12 1
J12 2
3 1
9 1
J13 2
4 1
11 1
J14 2
5 1
10 1
J15 2
6 1
12 1
G0 1
7 2
